	Costo	Iter.	Tiempo
1	533,66	229	20,421
2	857,44	120	17,412
3	847,03	168	58,984
4	1073,94	130	108,295
5	1384,08	200	293,988
6	567,74	160	12,089
7	939,36	134	49,219
8	871,6	280	134,743
9	1227,85	108	823,003
10	1487,22	359	10992,249
11	1272,95	188	116,772
12	839,64	265	84,035
13	1587,14	355	211,09
14	878,41	250	83,972
